endtime = 15;
SERVICE = { S1, S2, S3, S4, S5, S6, S7, S8, S9, S10 };
start =     [0,  0,  0,  7,  3,  5,  6, 10, 11,  12];
end   =     [4,  5,  3, 11,  5,  8,  9, 12, 13,  15];
STYPE = { Gas, Refit, Roof, Solar };
stype =  [ Gas, Refit, Roof, Gas, Solar, Solar, Refit, Roof, Gas, Refit ];
TRUCK = { DD, T1,  T2,  T3 };
dtruck = DD;
ttype = [ DUMMY, SML, MED, LRG  ];
maxsty = [ 1,2,4,0];

maxmaint = 2;
maintdur = [0,1,3,5];
maxsep = [ 0, 4, 8, 0 ];

minwork = 20;
minservice = 70;

majorwork = 30;
prework = [ 0, 0, 0, 0 ];

